words_easy_train/words_427_SAT.qaiger
aag 55 16 0 1 39
2
14
16
18
22
30
28
10
32
20
26
24
4
8
12
6
111
34 21 19
36 34 23
38 36 25
40 38 27
42 39 26
44 43 41
46 45 15
48 44 14
50 49 47
52 21 8
54 20 9
56 55 53
58 57 19
60 56 6
62 18 7
64 63 5
66 64 2
68 66 61
70 68 59
72 35 22
74 73 37
76 74 11
78 75 10
80 79 77
82 80 70
84 37 24
86 85 39
88 86 13
90 87 12
92 91 89
94 92 82
96 29 17
98 28 16
100 99 97
102 101 41
104 100 40
106 105 103
108 106 94
110 108 51
i0 1 x1[0]
i1 1 x1[6]
i2 1 x1[7]
i3 2 y2[0]
i4 2 y2[2]
i5 2 y2[6]
i6 2 y2[5]
i7 1 x1[4]
i8 2 y2[7]
i9 2 y2[1]
i10 2 y2[4]
i11 2 y2[3]
i12 1 x1[1]
i13 1 x1[3]
i14 1 x1[5]
i15 1 x1[2]
o0 bool[0]
c
simplified
  !=
    1 x1
    subtract
      1
      << 2
        2 y2
