words_easy_train/words_427_SAT.qaiger.qdimacs
p cnf 55 118
a 1 2 3 4 5 6 7 8 0
e 9 10 11 12 13 14 15 16 17 18 19 20 21 22 23 24 25 26 27 28 29 30 31 32 33 34 35 36 37 38 39 40 41 42 43 44 45 46 47 48 49 50 51 52 53 54 55 0
10 9 17 0
-10 -17 0
-9 -17 0
-17 11 18 0
17 -18 0
-11 -18 0
-18 12 19 0
18 -19 0
-12 -19 0
-19 13 20 0
19 -20 0
-13 -20 0
19 -13 21 0
-19 -21 0
13 -21 0
21 20 22 0
-21 -22 0
-20 -22 0
22 7 23 0
-22 -23 0
-7 -23 0
-22 -7 24 0
22 -24 0
7 -24 0
24 23 25 0
-24 -25 0
-23 -25 0
10 -4 26 0
-10 -26 0
4 -26 0
-10 4 27 0
10 -27 0
-4 -27 0
27 26 28 0
-27 -28 0
-26 -28 0
28 9 29 0
-28 -29 0
-9 -29 0
-28 -3 30 0
28 -30 0
3 -30 0
-9 3 31 0
9 -31 0
-3 -31 0
31 2 32 0
-31 -32 0
-2 -32 0
-32 -1 33 0
32 -33 0
1 -33 0
-33 30 34 0
33 -34 0
-30 -34 0
-34 29 35 0
34 -35 0
-29 -35 0
17 -11 36 0
-17 -36 0
11 -36 0
36 18 37 0
-36 -37 0
-18 -37 0
-37 5 38 0
37 -38 0
-5 -38 0
37 -5 39 0
-37 -39 0
5 -39 0
39 38 40 0
-39 -40 0
-38 -40 0
-40 -35 41 0
40 -41 0
35 -41 0
18 -12 42 0
-18 -42 0
12 -42 0
42 19 43 0
-42 -43 0
-19 -43 0
-43 6 44 0
43 -44 0
-6 -44 0
43 -6 45 0
-43 -45 0
6 -45 0
45 44 46 0
-45 -46 0
-44 -46 0
-46 -41 47 0
46 -47 0
41 -47 0
14 8 48 0
-14 -48 0
-8 -48 0
-14 -8 49 0
14 -49 0
8 -49 0
49 48 50 0
-49 -50 0
-48 -50 0
50 20 51 0
-50 -51 0
-20 -51 0
-50 -20 52 0
50 -52 0
20 -52 0
52 51 53 0
-52 -53 0
-51 -53 0
-53 -47 54 0
53 -54 0
47 -54 0
-54 25 55 0
54 -55 0
-25 -55 0
-55 0
